instances/projet_5_8_5.sol

<<< setup


<<< generate

Tried aggregator 1 time.
MIP Presolve eliminated 300 rows and 241 columns.
MIP Presolve modified 32 coefficients.
Reduced MIP has 479 rows, 402 columns, and 2081 nonzeros.
Reduced MIP has 350 binaries, 0 generals, 0 SOSs, and 0 indicators.
Presolve time = 0,00 sec. (1,24 ticks)
Found incumbent of value 1,000000 after 0,00 sec. (3,05 ticks)
Probing fixed 0 vars, tightened 6 bounds.
Probing time = 0,00 sec. (3,16 ticks)
Tried aggregator 1 time.
MIP Presolve modified 6 coefficients.
Reduced MIP has 479 rows, 402 columns, and 2081 nonzeros.
Reduced MIP has 350 binaries, 0 generals, 0 SOSs, and 0 indicators.
Presolve time = 0,00 sec. (1,00 ticks)
Probing time = 0,00 sec. (2,49 ticks)
Clique table members: 1462.
MIP emphasis: balance optimality and feasibility.
MIP search method: dynamic search.
Parallel mode: deterministic, using up to 4 threads.
Root relaxation solution time = 0,00 sec. (4,66 ticks)

        Nodes                                         Cuts/
   Node  Left     Objective  IInf  Best Integer    Best Bound    ItCnt     Gap

*     0+    0                            1,0000       25,0000      229     --- 
      0     0       25,0000   164        1,0000       25,0000      229     --- 
*     0+    0                           25,0000       25,0000      229    0,00%
      0     0        cutoff             25,0000       25,0000      229    0,00%
Elapsed time = 0,11 sec. (62,69 ticks, tree = 0,00 MB, solutions = 2)

Root node processing (before b&c):
  Real time             =    0,11 sec. (62,72 ticks)
Parallel b&c, 4 threads:
  Real time             =    0,00 sec. (0,00 ticks)
  Sync time (average)   =    0,00 sec.
  Wait time (average)   =    0,00 sec.
                          ------------
Total (root+branch&cut) =    0,11 sec. (62,72 ticks)

<<< solve


OBJECTIVE: 25

x[1][1] = 1 x[1][2] = 1 x[1][3] = 1 x[1][4] = 1 x[1][5] = 1 x[1][6] = 0 x[1][7] = 0 x[1][8] = 0 
x[2][1] = 1 x[2][2] = 1 x[2][3] = 1 x[2][4] = 1 x[2][5] = 1 x[2][6] = 0 x[2][7] = 0 x[2][8] = 0 
x[3][1] = 1 x[3][2] = 1 x[3][3] = 1 x[3][4] = 1 x[3][5] = 1 x[3][6] = 0 x[3][7] = 0 x[3][8] = 0 
x[4][1] = 1 x[4][2] = 1 x[4][3] = 1 x[4][4] = 1 x[4][5] = 1 x[4][6] = 0 x[4][7] = 0 x[4][8] = 0 
x[5][1] = 1 x[5][2] = 1 x[5][3] = 1 x[5][4] = 1 x[5][5] = 1 x[5][6] = 0 x[5][7] = 0 x[5][8] = 0 


<<< post process


<<< done

